 vasp.5.4.4.18Apr17-6-g9f103f2a35 (build Jun 26 2021 01:31:14) complex

 executed on             LinuxIFC date 2022.04.20  15:01:42

 INCAR:
 POTCAR:    PAW_PBE Ti 08Apr2002
 POTCAR:    PAW_PBE O 08Apr2002
 POTCAR:    PAW_PBE Ti 08Apr2002

 POTCAR:    PAW_PBE O 08Apr2002

  PAW_PBE Ti 08Apr2002                  :
  PAW_PBE O 08Apr2002                   :

 POSCAR: Ti  O
  positions in cartesian coordinates
 exchange correlation table for  LEXCH =        8
   RHO(1)=    0.500       N(1)  =     2000
   RHO(2)=  100.500       N(2)  =     4000

 ion  position               nearest neighbor table
   1  0.000  0.000  0.000-   3 1.97   4 1.97   3 1.97   4 1.97   5 2.01   6 2.01
   2  0.500  0.500  0.500-   5 1.97   6 1.97   5 1.97   6 1.97   3 2.01   4 2.01
   3  0.195  0.805  0.500-   1 1.97   1 1.97   2 2.01
   4  0.805  0.195  0.500-   1 1.97   1 1.97   2 2.01
   5  0.695  0.695  0.000-   2 1.97   2 1.97   1 2.01
   6  0.305  0.305  0.000-   2 1.97   2 1.97   1 2.01

  LATTYP: Found a simple tetragonal cell.
 ALAT       =     4.6617898557
 C/A-ratio  =     0.6368372177

  Lattice vectors:

 A1 = (   4.6617898557,   0.0000000000,   0.0000000000)
 A2 = (   0.0000000000,   4.6617898557,   0.0000000000)
 A3 = (   0.0000000000,   0.0000000000,   2.9688012812)

Analysis of symmetry for initial positions (statically):
 Subroutine PRICEL returns:
 Original cell was already a primitive cell.

 Routine SETGRP: Setting up the symmetry group for a
 simple tetragonal supercell.

 Subroutine GETGRP returns: Found 16 space group operations
 (whereof  8 operations were pure point group operations)
 out of a pool of 16 trial point group operations.

The static configuration has the point symmetry D_2h.
 The point group associated with its full space group is D_4h.

Analysis of symmetry for dynamics (positions and initial velocities):
 Subroutine PRICEL returns:
 Original cell was already a primitive cell.

 Routine SETGRP: Setting up the symmetry group for a
 simple tetragonal supercell.

 Subroutine GETGRP returns: Found 16 space group operations
 (whereof  8 operations were pure point group operations)
 out of a pool of 16 trial point group operations.

The dynamic configuration has the point symmetry D_2h.
 The point group associated with its full space group is D_4h.

 Subroutine INISYM returns: Found 16 space group operations
 (whereof  8 operations are pure point group operations),
 and found     1 'primitive' translations

 KPOINTS: KPOINTS created by Atomic Simulation Env

Automatic generation of k-mesh.
Space group operators:
 irot       det(A)        alpha          n_x          n_y          n_z        tau_x        tau_y        tau_z
    1     1.000000     0.000001     1.000000     0.000000     0.000000     0.000000     0.000000     0.000000
    2    -1.000000     0.000001     1.000000     0.000000     0.000000     0.000000     0.000000     0.000000
    3     1.000000   180.000000     0.000000     0.000000     1.000000     0.000000     0.000000     0.000000
    4    -1.000000   180.000000     0.000000     0.000000     1.000000     0.000000     0.000000     0.000000
    5     1.000000   180.000000     0.707107     0.707107     0.000000     0.000000     0.000000     0.000000
    6    -1.000000   180.000000     0.707107     0.707107     0.000000     0.000000     0.000000     0.000000
    7     1.000000   180.000000     0.707107    -0.707107     0.000000     0.000000     0.000000     0.000000
    8    -1.000000   180.000000     0.707107    -0.707107     0.000000     0.000000     0.000000     0.000000
    9     1.000000    90.000000     0.000000     0.000000    -1.000000     0.500000     0.500000     0.500000
   10    -1.000000    90.000000     0.000000     0.000000    -1.000000     0.500000     0.500000     0.500000
   11     1.000000    90.000000     0.000000     0.000000     1.000000     0.500000     0.500000     0.500000
   12    -1.000000    90.000000     0.000000     0.000000     1.000000     0.500000     0.500000     0.500000
   13     1.000000   180.000000     0.000000     1.000000     0.000000     0.500000     0.500000     0.500000
   14    -1.000000   180.000000     0.000000     1.000000     0.000000     0.500000     0.500000     0.500000
   15     1.000000   180.000000     1.000000     0.000000     0.000000     0.500000     0.500000     0.500000
   16    -1.000000   180.000000     1.000000     0.000000     0.000000     0.500000     0.500000     0.500000

 Subroutine IBZKPT returns following result:

 Found    432 irreducible k-points:

 Following reciprocal coordinates:
            Coordinates               Weight
  0.000000  0.000000  0.000000      1.000000
  0.066667  0.000000  0.000000      4.000000
  0.133333  0.000000  0.000000      4.000000
  0.200000  0.000000  0.000000      4.000000
  0.266667  0.000000  0.000000      4.000000
  0.333333  0.000000  0.000000      4.000000
  0.400000  0.000000  0.000000      4.000000
  0.466667  0.000000  0.000000      4.000000
  0.066667  0.066667  0.000000      4.000000
  0.133333  0.066667  0.000000      8.000000
  0.200000  0.066667  0.000000      8.000000
  0.266667  0.066667  0.000000      8.000000
  0.333333  0.066667  0.000000      8.000000
  0.400000  0.066667  0.000000      8.000000
  0.466667  0.066667  0.000000      8.000000
  0.133333  0.133333  0.000000      4.000000
  0.200000  0.133333  0.000000      8.000000
  0.266667  0.133333  0.000000      8.000000
  0.333333  0.133333  0.000000      8.000000
  0.400000  0.133333  0.000000      8.000000
  0.466667  0.133333  0.000000      8.000000
  0.200000  0.200000  0.000000      4.000000
  0.266667  0.200000  0.000000      8.000000
  0.333333  0.200000  0.000000      8.000000
  0.400000  0.200000  0.000000      8.000000
  0.466667  0.200000  0.000000      8.000000
  0.266667  0.266667  0.000000      4.000000
  0.333333  0.266667  0.000000      8.000000
  0.400000  0.266667  0.000000      8.000000
  0.466667  0.266667  0.000000      8.000000
  0.333333  0.333333  0.000000      4.000000
  0.400000  0.333333  0.000000      8.000000
  0.466667  0.333333  0.000000      8.000000
  0.400000  0.400000  0.000000      4.000000
  0.466667  0.400000  0.000000      8.000000
  0.466667  0.466667  0.000000      4.000000
  0.000000  0.000000  0.043478      2.000000
  0.066667  0.000000  0.043478      8.000000
  0.133333  0.000000  0.043478      8.000000
  0.200000  0.000000  0.043478      8.000000
  0.266667  0.000000  0.043478      8.000000
  0.333333  0.000000  0.043478      8.000000
  0.400000  0.000000  0.043478      8.000000
  0.466667  0.000000  0.043478      8.000000
  0.066667  0.066667  0.043478      8.000000
  0.133333  0.066667  0.043478     16.000000
  0.200000  0.066667  0.043478     16.000000
  0.266667  0.066667  0.043478     16.000000
  0.333333  0.066667  0.043478     16.000000
  0.400000  0.066667  0.043478     16.000000
  0.466667  0.066667  0.043478     16.000000
  0.133333  0.133333  0.043478      8.000000
  0.200000  0.133333  0.043478     16.000000
  0.266667  0.133333  0.043478     16.000000
  0.333333  0.133333  0.043478     16.000000
  0.400000  0.133333  0.043478     16.000000
  0.466667  0.133333  0.043478     16.000000
  0.200000  0.200000  0.043478      8.000000
  0.266667  0.200000  0.043478     16.000000
  0.333333  0.200000  0.043478     16.000000
[...]
  0.200000  0.200000  0.478261      8.000000
  0.266667  0.200000  0.478261     16.000000
  0.333333  0.200000  0.478261     16.000000
  0.400000  0.200000  0.478261     16.000000
  0.466667  0.200000  0.478261     16.000000
  0.266667  0.266667  0.478261      8.000000
  0.333333  0.266667  0.478261     16.000000
  0.400000  0.266667  0.478261     16.000000
  0.466667  0.266667  0.478261     16.000000
  0.333333  0.333333  0.478261      8.000000
  0.400000  0.333333  0.478261     16.000000
  0.466667  0.333333  0.478261     16.000000
  0.400000  0.400000  0.478261      8.000000
  0.466667  0.400000  0.478261     16.000000
  0.466667  0.466667  0.478261      8.000000

 Following cartesian coordinates:
            Coordinates               Weight
  0.000000  0.000000  0.000000      1.000000
  0.014301  0.000000  0.000000      4.000000
  0.028601  0.000000  0.000000      4.000000
  0.042902  0.000000  0.000000      4.000000
  0.057203  0.000000  0.000000      4.000000
  0.071503  0.000000  0.000000      4.000000
  0.085804  0.000000  0.000000      4.000000
  0.100105  0.000000  0.000000      4.000000
  0.014301  0.014301  0.000000      4.000000
  0.028601  0.014301  0.000000      8.000000
  0.042902  0.014301  0.000000      8.000000
  0.057203  0.014301  0.000000      8.000000
  0.071503  0.014301  0.000000      8.000000
  0.085804  0.014301  0.000000      8.000000
  0.100105  0.014301  0.000000      8.000000
  0.028601  0.028601  0.000000      4.000000
  0.042902  0.028601  0.000000      8.000000
  0.057203  0.028601  0.000000      8.000000
  0.071503  0.028601  0.000000      8.000000
  0.085804  0.028601  0.000000      8.000000
  0.100105  0.028601  0.000000      8.000000
  0.042902  0.042902  0.000000      4.000000
  0.057203  0.042902  0.000000      8.000000
  0.071503  0.042902  0.000000      8.000000
  0.085804  0.042902  0.000000      8.000000
  0.100105  0.042902  0.000000      8.000000
  0.057203  0.057203  0.000000      4.000000
  0.071503  0.057203  0.000000      8.000000
  0.085804  0.057203  0.000000      8.000000
  0.100105  0.057203  0.000000      8.000000
  0.071503  0.071503  0.000000      4.000000
  0.085804  0.071503  0.000000      8.000000
  0.100105  0.071503  0.000000      8.000000
  0.085804  0.085804  0.000000      4.000000
  0.100105  0.085804  0.000000      8.000000
  0.100105  0.100105  0.000000      4.000000
  0.000000  0.000000  0.014645      2.000000
  0.014301  0.000000  0.014645      8.000000
  0.028601  0.000000  0.014645      8.000000
  0.042902  0.000000  0.014645      8.000000
  0.057203  0.000000  0.014645      8.000000
  0.071503  0.000000  0.014645      8.000000
  0.085804  0.000000  0.014645      8.000000
  0.100105  0.000000  0.014645      8.000000
  0.014301  0.014301  0.014645      8.000000
  0.028601  0.014301  0.014645     16.000000
  0.042902  0.014301  0.014645     16.000000
  0.057203  0.014301  0.014645     16.000000
  0.071503  0.014301  0.014645     16.000000
  0.085804  0.014301  0.014645     16.000000
  0.100105  0.014301  0.014645     16.000000
  0.028601  0.028601  0.014645      8.000000
  0.042902  0.028601  0.014645     16.000000
  0.057203  0.028601  0.014645     16.000000
  0.071503  0.028601  0.014645     16.000000
  0.085804  0.028601  0.014645     16.000000
  0.100105  0.028601  0.014645     16.000000
  0.042902  0.042902  0.014645      8.000000
  0.057203  0.042902  0.014645     16.000000
  0.071503  0.042902  0.014645     16.000000
[...]
  0.042902  0.042902  0.161096      8.000000
  0.057203  0.042902  0.161096     16.000000
  0.071503  0.042902  0.161096     16.000000
  0.085804  0.042902  0.161096     16.000000
  0.100105  0.042902  0.161096     16.000000
  0.057203  0.057203  0.161096      8.000000
  0.071503  0.057203  0.161096     16.000000
  0.085804  0.057203  0.161096     16.000000
  0.100105  0.057203  0.161096     16.000000
[...]
 k-point 28 :   0.3333 0.2667 0.0000  plane waves:    1641
 k-point 29 :   0.4000 0.2667 0.0000  plane waves:    1641
 k-point 30 :   0.4667 0.2667 0.0000  plane waves:    1637
 k-point 31 :   0.3333 0.3333 0.0000  plane waves:    1642
 k-point 32 :   0.4000 0.3333 0.0000  plane waves:    1640
 k-point 33 :   0.4667 0.3333 0.0000  plane waves:    1644
 k-point 34 :   0.4000 0.4000 0.0000  plane waves:    1636
 k-point 35 :   0.4667 0.4000 0.0000  plane waves:    1644
 k-point 36 :   0.4667 0.4667 0.0000  plane waves:    1650
 k-point 37 :   0.0000 0.0000 0.0435  plane waves:    1627
 k-point 38 :   0.0667 0.0000 0.0435  plane waves:    1634
 k-point 39 :   0.1333 0.0000 0.0435  plane waves:    1632
 k-point 40 :   0.2000 0.0000 0.0435  plane waves:    1645
 k-point 41 :   0.2667 0.0000 0.0435  plane waves:    1653
 k-point 42 :   0.3333 0.0000 0.0435  plane waves:    1653
 k-point 43 :   0.4000 0.0000 0.0435  plane waves:    1652
 k-point 44 :   0.4667 0.0000 0.0435  plane waves:    1651
 k-point 45 :   0.0667 0.0667 0.0435  plane waves:    1631
 k-point 46 :   0.1333 0.0667 0.0435  plane waves:    1634
 k-point 47 :   0.2000 0.0667 0.0435  plane waves:    1645
 k-point 48 :   0.2667 0.0667 0.0435  plane waves:    1649
 k-point 49 :   0.3333 0.0667 0.0435  plane waves:    1649
 k-point 50 :   0.4000 0.0667 0.0435  plane waves:    1650
 k-point 51 :   0.4667 0.0667 0.0435  plane waves:    1648
 k-point 52 :   0.1333 0.1333 0.0435  plane waves:    1642
 k-point 53 :   0.2000 0.1333 0.0435  plane waves:    1649
 k-point 54 :   0.2667 0.1333 0.0435  plane waves:    1651
 k-point 55 :   0.3333 0.1333 0.0435  plane waves:    1647
 k-point 56 :   0.4000 0.1333 0.0435  plane waves:    1645
 k-point 57 :   0.4667 0.1333 0.0435  plane waves:    1641
 k-point 58 :   0.2000 0.2000 0.0435  plane waves:    1651
 k-point 59 :   0.2667 0.2000 0.0435  plane waves:    1644
 k-point 60 :   0.3333 0.2000 0.0435  plane waves:    1642
[...]
 k-point 85 :   0.3333 0.0667 0.0870  plane waves:    1650
 k-point 86 :   0.4000 0.0667 0.0870  plane waves:    1649
 k-point 87 :   0.4667 0.0667 0.0870  plane waves:    1648
 k-point 88 :   0.1333 0.1333 0.0870  plane waves:    1642
 k-point 89 :   0.2000 0.1333 0.0870  plane waves:    1643
 k-point 90 :   0.2667 0.1333 0.0870  plane waves:    1645
 k-point 91 :   0.3333 0.1333 0.0870  plane waves:    1645
 k-point 92 :   0.4000 0.1333 0.0870  plane waves:    1648
 k-point 93 :   0.4667 0.1333 0.0870  plane waves:    1645
 k-point 94 :   0.2000 0.2000 0.0870  plane waves:    1655
 k-point 95 :   0.2667 0.2000 0.0870  plane waves:    1652
 k-point 96 :   0.3333 0.2000 0.0870  plane waves:    1645
 k-point 97 :   0.4000 0.2000 0.0870  plane waves:    1645
 k-point 98 :   0.4667 0.2000 0.0870  plane waves:    1647
 k-point 99 :   0.2667 0.2667 0.0870  plane waves:    1653
 k-point ** :   0.3333 0.2667 0.0870  plane waves:    1646
 k-point ** :   0.4000 0.2667 0.0870  plane waves:    1644
 k-point ** :   0.4667 0.2667 0.0870  plane waves:    1641
 k-point ** :   0.3333 0.3333 0.0870  plane waves:    1645
 k-point ** :   0.4000 0.3333 0.0870  plane waves:    1642
 k-point ** :   0.4667 0.3333 0.0870  plane waves:    1642
 k-point ** :   0.4000 0.4000 0.0870  plane waves:    1638
 k-point ** :   0.4667 0.4000 0.0870  plane waves:    1637
 k-point ** :   0.4667 0.4667 0.0870  plane waves:    1645
 k-point ** :   0.0000 0.0000 0.1304  plane waves:    1631
 k-point ** :   0.0667 0.0000 0.1304  plane waves:    1634
 k-point ** :   0.1333 0.0000 0.1304  plane waves:    1634
 k-point ** :   0.2000 0.0000 0.1304  plane waves:    1645
 k-point ** :   0.2667 0.0000 0.1304  plane waves:    1638
 k-point ** :   0.3333 0.0000 0.1304  plane waves:    1639
 k-point ** :   0.4000 0.0000 0.1304  plane waves:    1642
 k-point ** :   0.4667 0.0000 0.1304  plane waves:    1646
 k-point ** :   0.0667 0.0667 0.1304  plane waves:    1640
 k-point ** :   0.1333 0.0667 0.1304  plane waves:    1639
 k-point ** :   0.2000 0.0667 0.1304  plane waves:    1641
 k-point ** :   0.2667 0.0667 0.1304  plane waves:    1642
 k-point ** :   0.3333 0.0667 0.1304  plane waves:    1647
 k-point ** :   0.4000 0.0667 0.1304  plane waves:    1643
 k-point ** :   0.4667 0.0667 0.1304  plane waves:    1645
 k-point ** :   0.1333 0.1333 0.1304  plane waves:    1646
 k-point ** :   0.2000 0.1333 0.1304  plane waves:    1644
 k-point ** :   0.2667 0.1333 0.1304  plane waves:    1644
 k-point ** :   0.3333 0.1333 0.1304  plane waves:    1646
 k-point ** :   0.4000 0.1333 0.1304  plane waves:    1649
 k-point ** :   0.4667 0.1333 0.1304  plane waves:    1648
 k-point ** :   0.2000 0.2000 0.1304  plane waves:    1646
 k-point ** :   0.2667 0.2000 0.1304  plane waves:    1647
 k-point ** :   0.3333 0.2000 0.1304  plane waves:    1648
 k-point ** :   0.4000 0.2000 0.1304  plane waves:    1641
 k-point ** :   0.4667 0.2000 0.1304  plane waves:    1642
 k-point ** :   0.2667 0.2667 0.1304  plane waves:    1649
 k-point ** :   0.3333 0.2667 0.1304  plane waves:    1646
 k-point ** :   0.4000 0.2667 0.1304  plane waves:    1647
 k-point ** :   0.4667 0.2667 0.1304  plane waves:    1642
 k-point ** :   0.3333 0.3333 0.1304  plane waves:    1645
 k-point ** :   0.4000 0.3333 0.1304  plane waves:    1645
 k-point ** :   0.4667 0.3333 0.1304  plane waves:    1638
 k-point ** :   0.4000 0.4000 0.1304  plane waves:    1639
 k-point ** :   0.4667 0.4000 0.1304  plane waves:    1637
 k-point ** :   0.4667 0.4667 0.1304  plane waves:    1637
 k-point ** :   0.0000 0.0000 0.1739  plane waves:    1639
 k-point ** :   0.0667 0.0000 0.1739  plane waves:    1639
 k-point ** :   0.1333 0.0000 0.1739  plane waves:    1648
 k-point ** :   0.2000 0.0000 0.1739  plane waves:    1647
 k-point ** :   0.2667 0.0000 0.1739  plane waves:    1641
 k-point ** :   0.3333 0.0000 0.1739  plane waves:    1642
 k-point ** :   0.4000 0.0000 0.1739  plane waves:    1639
 k-point ** :   0.4667 0.0000 0.1739  plane waves:    1634
 k-point ** :   0.0667 0.0667 0.1739  plane waves:    1641
 k-point ** :   0.1333 0.0667 0.1739  plane waves:    1648
 k-point ** :   0.2000 0.0667 0.1739  plane waves:    1645
 k-point ** :   0.2667 0.0667 0.1739  plane waves:    1639
 k-point ** :   0.3333 0.0667 0.1739  plane waves:    1639
 k-point ** :   0.4000 0.0667 0.1739  plane waves:    1641
 k-point ** :   0.4667 0.0667 0.1739  plane waves:    1642
[...]
 k-point ** :   0.2000 0.2000 0.4783  plane waves:    1638
 k-point ** :   0.2667 0.2000 0.4783  plane waves:    1637
 k-point ** :   0.3333 0.2000 0.4783  plane waves:    1628
 k-point ** :   0.4000 0.2000 0.4783  plane waves:    1626
 k-point ** :   0.4667 0.2000 0.4783  plane waves:    1615
 k-point ** :   0.2667 0.2667 0.4783  plane waves:    1630
 k-point ** :   0.3333 0.2667 0.4783  plane waves:    1629
 k-point ** :   0.4000 0.2667 0.4783  plane waves:    1629
 k-point ** :   0.4667 0.2667 0.4783  plane waves:    1623
 k-point ** :   0.3333 0.3333 0.4783  plane waves:    1624
 k-point ** :   0.4000 0.3333 0.4783  plane waves:    1625
 k-point ** :   0.4667 0.3333 0.4783  plane waves:    1623
 k-point ** :   0.4000 0.4000 0.4783  plane waves:    1621
 k-point ** :   0.4667 0.4000 0.4783  plane waves:    1615
 k-point ** :   0.4667 0.4667 0.4783  plane waves:    1602

 maximum and minimum number of plane-waves per node :       152      114

 maximum number of plane-waves:      1663
 maximum index in each direction:
   IXMAX=    8   IYMAX=    8   IZMAX=    5
   IXMIN=   -8   IYMIN=   -8   IZMIN=   -5

 parallel 3D FFT for wavefunctions:
    minimum data exchange during FFTs selected (reduces bandwidth)
 parallel 3D FFT for charge:
    minimum data exchange during FFTs selected (reduces bandwidth)

 Broyden mixing: mesh for mixing (old mesh)
   NGX = 17   NGY = 17   NGZ = 11
  (NGX  = 72   NGY  = 72   NGZ  = 48)
  gives a total of   3179 points

 initial charge density was supplied:
 charge density of overlapping atoms calculated
 number of electron      32.0000000 magnetization
 keeping initial charge density in first step

 Maximum index for augmentation-charges         1251 (set IRDMAX)

 First call to EWALD:  gamma=   0.442
 Maximum number of real-space cells 2x 2x 4
 Maximum number of reciprocal cells 3x 3x 2

--------------------------------------- Iteration      1(   1)  ---------------------------------------

 eigenvalue-minimisations  : 17400
 total energy-change (2. order) : 0.3744059E+03  (-0.1426406E+04)
 number of electron      32.0000000 magnetization
 augmentation part       32.0000000 magnetization

 Free energy of the ion-electron system (eV)
  alpha Z        PSCENC =       133.34338423
  Ewald energy   TEWEN  =     -1561.12849344
  -Hartree energ DENC   =      -447.16640732
  -exchange      EXHF   =         0.00000000
  -V(xc)+E(xc)   XCENC  =        36.02387905
  PAW double counting   =      1637.22947824    -1563.49591269
  entropy T*S    EENTRO =        -0.00219345
  eigenvalues    EBANDS =       220.59109645
  atomic energy  EATOM  =      1919.01102819
  Solvation  Ediel_sol  =         0.00000000
  free energy    TOTEN  =       374.40585927 eV

  energy without entropy =      374.40805272  energy(sigma->0) =      374.40695600

[...]

 eigenvalue-minimisations  : 22668
 total energy-change (2. order) :-0.3717441E+03  (-0.3599463E+03)
 number of electron      32.0000000 magnetization
 augmentation part       32.0000000 magnetization

[...]

 Broyden mixing:
  rms(total) = 0.40339E+01    rms(broyden)= 0.40337E+01
  rms(prec ) = 0.62739E+01
  weight for this iteration     100.00

[...]

 eigenvalues of (default mixing * dielectric matrix)
  average eigenvalue GAMMA=   1.0025
  1.0025

[...]

 eigenvalue-minimisations  : 19415
 total energy-change (2. order) : 0.2710021E-07  (-0.1353517E-07)
 number of electron      32.0000011 magnetization
 augmentation part        4.3646967 magnetization

 Broyden mixing:
  rms(total) = 0.60944E-04    rms(broyden)= 0.60925E-04
  rms(prec ) = 0.10884E-03
  weight for this iteration     100.00

 eigenvalues of (default mixing * dielectric matrix)
  average eigenvalue GAMMA=   1.3957
  3.3791  2.6703  2.2251  2.2251  1.4373  1.4373  1.0005  0.9483  0.9483  0.9340
  0.9340  0.6790  0.8041  0.8041  0.5097

[...]

--------------------------------------- Iteration      1(  21)  ---------------------------------------

 eigenvalue-minimisations  : 13805
 total energy-change (2. order) :-0.1657099E-08  (-0.1080002E-08)
 number of electron      32.0000011 magnetization
 augmentation part        4.3646967 magnetization

 Free energy of the ion-electron system (eV)
  alpha Z        PSCENC =       133.34338423
  Ewald energy   TEWEN  =     -1561.12849344
  -Hartree energ DENC   =      -507.83323062
  -exchange      EXHF   =         0.00000000
  -V(xc)+E(xc)   XCENC  =        42.38304727
  PAW double counting   =      2934.76554666    -2862.07236131
  entropy T*S    EENTRO =        -0.00000000
  eigenvalues    EBANDS =      -151.28849024
  atomic energy  EATOM  =      1919.01102819
  Solvation  Ediel_sol  =         0.00000000
  free energy    TOTEN  =       -52.81956925 eV

  energy without entropy =      -52.81956925  energy(sigma->0) =      -52.81956925

 average (electrostatic) potential at core
  the test charge radii are     1.2598  0.7215
  (the norm of the test charge is              1.0000)
       1 -28.3409       2 -28.3409       3 -72.5689       4 -72.5689       5 -72.5689
       6 -72.5689

 E-fermi :   1.8105     XC(G=0): -11.0120     alpha+bet :-10.5322

 k-point     1 :       0.0000    0.0000    0.0000
  band No.  band energies     occupation
      1     -16.4543      2.00000
      2     -15.3168      2.00000
      3     -14.7954      2.00000
      4     -14.7954      2.00000
      5      -4.0033      2.00000
      6      -3.5690      2.00000
      7      -3.0774      2.00000
      8      -2.0820      2.00000
      9      -2.0820      2.00000
     10      -0.8921      2.00000
     11      -0.8921      2.00000
     12      -0.2556      2.00000
     13       0.9849      2.00000
     14       1.2187      2.00000
     15       1.2187      2.00000
     16       1.5859      2.00000
     17       3.2330      0.00000
     18       3.5118      0.00000
     19       3.7819      0.00000
     20       3.8417      0.00000

[...]

 k-point   432 :       0.4667    0.4667    0.4783
  band No.  band energies     occupation
      1     -15.2569      2.00000
      2     -15.2436      2.00000
      3     -15.0778      2.00000
      4     -15.0640      2.00000
      5      -2.9913      2.00000
      6      -2.9127      2.00000
      7      -2.8352      2.00000
      8      -2.7665      2.00000
      9      -1.8430      2.00000
     10      -1.8088      2.00000
     11      -1.1205      2.00000
     12      -1.1103      2.00000
     13       0.3831      2.00000
     14       0.3901      2.00000
     15       0.9118      2.00000
     16       0.9290      2.00000
     17       3.8990      0.00000
     18       3.9596      0.00000
     19       4.5223      0.00000
     20       4.5806      0.00000

 soft charge-density along one line, spin component           1
         0         1         2         3         4         5         6         7         8         9
 total charge-density along one line

------------------------ aborting loop because EDIFF is reached ----------------------------------------

  FORCE on cell =-STRESS in cart. coord.  units (eV):
  Direction    XX          YY          ZZ          XY          YZ          ZX
  Alpha Z   133.34338   133.34338   133.34338
  Ewald    -559.10417  -559.10417  -442.92205    -0.00000     0.00000     0.00000
  Hartree   162.38436   162.38436   183.06739    -0.00000    -0.00000    -0.00000
  E(xc)    -152.34463  -152.34463  -153.30012     0.00000    -0.00000     0.00000
  Local    -108.34603  -108.34603  -234.25271     0.00000     0.00000    -0.00000
  n-local   -94.03456   -95.08945   -91.87849    -0.01934     0.14199    -0.09171
  augment    37.07548    37.07548    36.38775    -0.00000     0.00000    -0.00000
  Kinetic   581.89077   581.21606   569.55642    -1.18767    -0.80538    -1.39166
  Fock        0.00000     0.00000     0.00000     0.00000     0.00000     0.00000
  Total      -0.00020    -0.00020     0.00158    -0.00000     0.00000     0.00000
  in kB      -0.00499    -0.00499     0.03914    -0.00000     0.00000     0.00000

 VOLUME and BASIS-vectors are now :
  energy-cutoff  :      500.00
  volume of cell :       64.52
      direct lattice vectors                 reciprocal lattice vectors
     4.661789856  0.000000000  0.000000000     0.214509884  0.000000000  0.000000000
     0.000000000  4.661789856  0.000000000     0.000000000  0.214509884  0.000000000
     0.000000000  0.000000000  2.968801281     0.000000000  0.000000000  0.336836287

  length of vectors
     4.661789856  4.661789856  2.968801281     0.214509884  0.214509884  0.336836287

 FORCES acting on ions
    electron-ion (+dipol)            ewald-force                    non-local-force                 convergence-correction
   0.330E-14 -.582E-14 0.216E-13   0.426E-13 0.142E-13 -.649E-14   0.000E+00 0.000E+00 0.000E+00   0.112E-13 -.367E-14 0.414E-14
   0.147E-12 0.158E-12 -.224E-12   0.497E-13 0.000E+00 -.573E-14   0.000E+00 0.000E+00 0.000E+00   -.531E-14 0.864E-14 -.325E-14
   -.172E+02 0.172E+02 0.117E-11   0.205E+02 -.205E+02 0.420E-14   -.326E+01 0.326E+01 -.347E-17   -.924E-04 0.924E-04 -.292E-13
   0.172E+02 -.172E+02 0.243E-11   -.205E+02 0.205E+02 0.445E-14   0.326E+01 -.326E+01 0.347E-17   0.924E-04 -.924E-04 0.286E-14
   -.172E+02 -.172E+02 0.660E-06   0.205E+02 0.205E+02 0.468E-14   -.326E+01 -.326E+01 0.347E-17   -.924E-04 -.924E-04 0.618E-14
   0.172E+02 0.172E+02 -.660E-06   -.205E+02 -.205E+02 0.488E-14   0.326E+01 0.326E+01 -.347E-17   0.924E-04 0.924E-04 -.169E-13
   0.994E-12 -.184E-11 0.250E-11   0.355E-14 0.355E-14 0.599E-14   0.000E+00 0.000E+00 0.000E+00   0.481E-13 -.248E-13 -.362E-13

 POSITION                                       TOTAL-FORCE (eV/Angst)
      0.00000      0.00000      0.00000        -0.000000     -0.000000      0.000000
      2.33089      2.33089      1.48440        -0.000000     -0.000000      0.000000
      0.91056      3.75123      1.48440        -0.000038      0.000038      0.000000
      3.75123      0.91056      1.48440         0.000038     -0.000038      0.000000
      3.24146      3.24146      0.00000        -0.000038     -0.000038      0.000000
      1.42033      1.42033      0.00000         0.000038      0.000038      0.000000
    total drift:                                0.000000     -0.000000      0.000000

  FREE ENERGIE OF THE ION-ELECTRON SYSTEM (eV)
  free  energy   TOTEN  =       -52.81956925 eV

  energy  without entropy=      -52.81956925  energy(sigma->0) =      -52.81956925